
  32    4
  10   10   10   10

   0   0   0   0   0   2 2 31 
   4   0   1   1   1   3 30 7 3 
   5   1   2   0   4   2 29 4 
   1   4   0   1   3   3 28 27 5 
   1   3   4   0   4   2 15 6 
   7   3   3   0   2   2 26 8 
  10   4   2   0   5   1 8 
   5   7   0   7   7   4 25 24 23 9 
   7   1   1   0   3   1 10 
   8   5   7   5   0   2 22 11 
   6   0   8   5   3   1 12 
   5   3   0   8   3   1 13 
   1   6   0   2   6   2 21 14 
   8   4   5   0   5   2 20 16 
   8   0   4   4   3   1 16 
  10   3   2   0   6   2 19 17 
   2   4   3   3   0   1 18 
   7   5   0   5   3   1 32
   2   0   2   1   2   1 32
   6   4   6   0   5   1 32
   2   6   0   4   3   1 32
   2   3   8   0   5   1 32
   4   4   7   0   6   1 32
   2   4   4   4   0   1 32
   2   3   4   5   0   1 32
   6   6   0   3   7   1 32
   4   2   4   0   3   1 32
   3   0   6   3   3   1 32
   3   4   3   6   0   1 32
   1   5   3   5   0   1 32
   9   6   3   4   0   1 32
   0   0   0   0   0   0 
